NAME : rnd13_50.tsp
TYPE : TSP
DIMENSION : 50
EDGE_WEIGHT_TYPE : EUC_2D
NODE_COORD_SECTION
1 392 825
2 538 148
3 671 738
4 554 291
5 249 800
6 227 416
7 926 864
8 670 728
9 470 98
10 440 352
11 964 808
12 287 648
13 480 703
14 712 524
15 91 850
16 336 968
17 730 724
18 989 742
19 598 101
20 431 847
21 974 400
22 770 859
23 40 939
24 911 883
25 159 77
26 888 274
27 401 571
28 806 503
29 25 888
30 822 26
31 147 285
32 445 305
33 29 146
34 262 969
35 785 187
36 767 537
37 764 579
38 581 517
39 349 562
40 993 437
41 156 271
42 677 201
43 273 590
44 244 611
45 864 995
46 610 186
47 961 567
48 327 224
49 698 747
50 630 48
